p tdp 112 111
43 10
61 62
101 65
110 5
47 84
36 98
38 81
42 94
16 98
82 6
1 108
36 56
41 72
21 107
90 19
29 61
24 73
70 39
2 15
106 65
89 69
25 99
76 85
40 64
59 49
40 86
72 112
31 58
98 70
47 14
25 38
97 76
111 92
41 4
28 59
79 80
48 57
44 75
53 27
7 104
52 55
9 34
9 109
68 42
45 22
105 90
11 46
106 103
75 12
85 67
59 74
98 108
77 88
41 95
60 66
59 91
71 18
21 51
52 99
60 27
38 7
20 80
32 101
35 10
30 31
73 23
48 85
41 75
9 30
5 63
18 12
28 3
51 43
9 100
46 93
37 82
69 19
83 102
89 54
111 11
33 29
10 24
102 49
6 106
78 79
57 87
26 112
104 110
94 111
96 38
29 84
53 42
101 19
50 6
29 15
104 86
17 28
77 106
8 13
48 86
13 67
9 99
71 78
15 4
108 83
22 53
87 73
19 74
95 111
24 41
1 84
